Route #1: 26
Route #2: 111 76
Route #3: 86 96
Route #4: 31 93
Route #5: 60 38
Route #6: 102 90
Route #7: 3 52 44 123 14
Route #8: 49 13 92 81 42 74 97
Route #9: 82 23 15 16
Route #10: 56 17 78 43
Route #11: 24 50 28
Route #12: 106 124 116 66
Route #13: 61 83 9 59 2 34
Route #14: 21 19 6
Route #15: 70 11 91 18
Route #16: 10 114 115
Route #17: 112 57
Route #18: 51 88 87 122
Route #19: 100 120
Route #20: 105 89 110
Route #21: 73 99
Route #22: 35 8
Route #23: 113 39 33
Route #24: 103 37
Route #25: 5 12
Route #26: 53 32
Route #27: 69 75
Route #28: 98 45
Route #29: 41 29 104 119
Route #30: 67 71 107
Route #31: 72 7 77 4 80 58
Route #32: 54 64 101 65 22 47 68 94
Route #33: 95 25 118 40 20 121 48 84
Route #34: 55 1 79 63 36 109
Route #35: 117 46 27 30 85 62 108
Cost 67874
